SECTION Graph 
Nodes 398
Edges 788
E 1 348 8
E 1 349 7
E 2 3 14
E 2 350 8
E 3 4 1
E 3 353 8
E 4 354 8
E 5 6 1
E 6 7 14
E 7 8 1
E 8 171 45
E 9 10 1
E 9 338 7
E 9 348 15
E 10 11 14
E 10 350 15
E 11 12 1
E 11 353 15
E 12 354 15
E 13 14 1
E 13 312 7
E 13 313 6
E 14 15 14
E 14 314 6
E 15 16 1
E 15 319 6
E 16 320 6
E 17 18 1
E 17 302 7
E 17 313 17
E 18 19 14
E 18 314 17
E 19 20 1
E 19 319 17
E 20 320 17
E 21 22 1
E 21 256 9
E 21 259 7
E 22 23 14
E 22 258 9
E 23 24 1
E 23 262 9
E 24 263 9
E 25 26 1
E 25 245 7
E 25 256 14
E 26 27 14
E 26 258 14
E 27 28 1
E 27 262 14
E 28 263 14
E 29 30 1
E 29 344 7
E 29 345 1
E 30 31 14
E 30 346 1
E 31 32 1
E 31 351 1
E 32 352 1
E 33 34 1
E 33 332 7
E 33 333 1
E 33 339 8
E 34 35 14
E 34 335 1
E 34 340 8
E 35 36 1
E 35 341 1
E 35 347 8
E 36 343 1
E 36 348 7
E 36 349 8
E 37 38 1
E 37 317 50
E 37 326 7
E 37 329 8
E 38 39 14
E 38 318 50
E 38 330 8
E 39 40 1
E 39 321 50
E 39 336 8
E 40 322 50
E 40 338 8
E 41 42 1
E 41 296 9
E 41 300 7
E 41 304 6
E 42 43 14
E 42 299 9
E 42 307 6
E 43 44 1
E 43 305 9
E 43 311 6
E 44 308 9
E 44 312 6
E 44 313 7
E 45 46 1
E 45 264 59
E 45 288 7
E 45 292 6
E 46 47 14
E 46 265 59
E 46 294 6
E 47 48 1
E 47 270 59
E 47 301 6
E 48 302 6
E 49 50 1
E 49 102 7
E 49 248 14
E 49 264 23
E 50 51 14
E 50 249 14
E 50 265 23
E 51 52 1
E 51 257 14
E 51 270 23
E 52 259 14
E 53 54 1
E 53 106 7
E 53 235 14
E 53 248 9
E 54 55 14
E 54 237 14
E 54 249 9
E 55 56 1
E 55 243 14
E 55 257 9
E 56 245 14
E 56 256 7
E 56 259 9
E 57 58 1
E 57 110 7
E 57 221 31
E 57 235 9
E 58 222 31
E 58 236 8
E 58 237 9
E 59 60 1
E 59 236 6
E 59 243 9
E 60 245 9
E 61 62 14
E 61 214 8
E 62 222 8
E 62 236 31
E 63 64 1
E 63 114 8
E 63 334 22
E 64 65 14
E 64 337 22
E 65 66 1
E 65 342 22
E 66 344 22
E 67 68 1
E 67 327 22
E 67 334 1
E 68 69 14
E 68 328 22
E 68 337 1
E 69 70 1
E 69 331 22
E 69 342 1
E 70 332 22
E 70 344 1
E 70 345 7
E 71 72 1
E 71 323 22
E 71 327 1
E 72 73 14
E 72 324 22
E 72 328 1
E 73 74 1
E 73 325 22
E 73 331 1
E 74 326 22
E 74 332 1
E 74 333 7
E 75 76 1
E 75 309 47
E 75 323 1
E 76 77 14
E 76 310 47
E 76 324 1
E 77 78 1
E 77 315 47
E 77 325 1
E 78 316 47
E 78 326 1
E 79 80 1
E 79 83 23
E 79 306 7
E 79 309 2
E 80 81 14
E 80 84 23
E 80 310 2
E 81 82 1
E 81 85 23
E 81 315 2
E 82 86 23
E 82 316 2
E 82 317 7
E 83 84 1
E 83 289 14
E 83 293 7
E 84 85 14
E 84 290 14
E 85 86 1
E 85 298 14
E 86 300 14
E 86 304 15
E 87 88 1
E 87 279 14
E 87 282 7
E 87 289 9
E 88 89 14
E 88 280 14
E 88 290 9
E 89 90 1
E 89 287 14
E 89 298 9
E 90 288 14
E 90 296 7
E 90 300 9
E 91 92 1
E 91 95 50
E 91 273 7
E 91 277 1
E 92 93 14
E 92 96 50
E 92 278 1
E 93 94 1
E 93 97 50
E 93 283 1
E 94 98 50
E 94 284 1
E 95 96 1
E 95 251 7
E 95 253 2
E 96 97 14
E 96 255 2
E 97 98 1
E 97 260 2
E 98 261 2
E 98 264 7
E 99 100 1
E 99 103 23
E 99 253 21
E 100 101 14
E 100 104 23
E 100 255 21
E 101 102 1
E 101 242 14
E 101 260 21
E 102 244 14
E 102 261 21
E 103 104 1
E 103 107 23
E 104 105 14
E 104 108 23
E 105 106 1
E 105 231 14
E 105 242 9
E 106 232 14
E 106 244 9
E 107 108 1
E 107 209 31
E 108 109 14
E 108 210 31
E 109 110 1
E 109 219 31
E 109 231 9
E 110 220 31
E 110 232 9
E 111 112 1
E 112 113 14
E 113 114 1
E 115 116 1
E 115 254 99
E 115 295 2
E 116 117 14
E 116 297 2
E 117 118 1
E 117 303 2
E 118 306 2
E 118 309 7
E 119 120 1
E 119 206 99
E 119 240 2
E 120 121 14
E 120 241 2
E 121 122 1
E 121 250 2
E 122 251 2
E 122 253 7
E 123 124 1
E 123 226 7
E 123 227 1
E 123 233 22
E 124 125 14
E 124 228 1
E 124 234 22
E 125 126 1
E 125 229 1
E 125 238 22
E 126 230 1
E 126 239 22
E 126 267 76
E 127 128 1
E 127 131 46
E 127 246 2
E 128 129 14
E 128 132 46
E 128 247 2
E 129 130 1
E 129 133 46
E 129 252 2
E 130 134 46
E 130 254 2
E 130 295 99
E 131 132 1
E 131 217 22
E 131 224 7
E 132 133 14
E 132 218 22
E 133 134 1
E 133 225 22
E 134 226 22
E 134 233 7
E 135 136 1
E 135 203 52
E 135 217 1
E 136 137 14
E 136 204 52
E 136 218 1
E 137 138 1
E 137 205 52
E 137 225 1
E 138 206 52
E 138 226 1
E 138 227 7
E 139 140 1
E 139 215 49
E 140 141 14
E 140 216 49
E 141 142 1
E 141 223 49
E 142 224 49
E 142 246 8
E 143 144 1
E 143 178 7
E 143 179 6
E 143 185 15
E 144 145 14
E 144 180 6
E 144 186 15
E 145 146 1
E 145 181 6
E 145 191 15
E 146 183 6
E 146 192 15
E 147 148 1
E 147 179 15
E 148 149 14
E 148 180 15
E 149 150 1
E 149 181 15
E 150 183 15
E 151 152 1
E 151 175 15
E 151 187 28
E 152 153 14
E 152 176 15
E 152 188 28
E 153 154 1
E 153 177 15
E 153 182 3
E 154 178 15
E 154 184 3
E 154 185 7
E 155 156 1
E 155 175 6
E 156 157 14
E 156 176 6
E 157 158 1
E 157 177 6
E 158 178 6
E 158 179 7
E 159 160 1
E 159 163 21
E 159 193 14
E 160 161 14
E 160 164 21
E 160 194 14
E 161 162 1
E 161 165 21
E 161 199 14
E 162 166 21
E 162 197 7
E 162 200 14
E 163 164 1
E 164 165 14
E 165 166 1
E 166 187 7
E 167 168 1
E 167 174 16
E 168 169 14
E 169 170 1
E 170 193 76
E 171 172 1
E 172 173 14
E 173 174 1
E 175 176 1
E 176 177 14
E 177 178 1
E 179 180 1
E 180 181 14
E 181 183 1
E 182 184 1
E 182 189 14
E 184 190 14
E 184 207 352
E 185 186 1
E 186 191 14
E 187 188 1
E 187 197 21
E 188 195 14
E 188 198 21
E 189 190 1
E 189 195 11
E 190 196 11
E 190 209 352
E 191 192 1
E 192 203 306
E 192 207 332
E 192 215 358
E 193 194 1
E 194 199 14
E 195 196 1
E 195 201 21
E 196 202 21
E 197 198 1
E 198 201 14
E 199 200 1
E 200 203 289
E 200 215 341
E 201 202 1
E 202 203 280
E 202 215 332
E 203 204 1
E 204 205 14
E 205 206 1
E 207 208 1
E 207 209 14
E 208 210 14
E 208 211 14
E 209 210 1
E 210 219 14
E 211 212 1
E 211 219 14
E 212 213 7
E 212 220 14
E 213 214 1
E 213 221 14
E 214 222 14
E 215 216 1
E 216 223 14
E 217 218 1
E 218 225 14
E 219 220 1
E 220 221 7
E 221 222 1
E 223 224 1
E 225 226 1
E 227 228 1
E 228 229 14
E 229 230 1
E 230 266 76
E 231 232 1
E 232 235 7
E 233 234 1
E 234 238 14
E 235 237 1
E 237 243 14
E 238 239 1
E 239 275 76
E 240 241 1
E 240 266 50
E 241 250 14
E 241 268 50
E 242 244 1
E 243 245 1
E 244 248 7
E 246 247 1
E 247 252 14
E 248 249 1
E 249 257 14
E 250 251 1
E 250 271 50
E 251 273 50
E 252 254 1
E 253 255 1
E 255 260 14
E 256 258 1
E 257 259 1
E 258 262 14
E 260 261 1
E 262 263 1
E 264 265 1
E 265 270 14
E 266 267 1
E 266 268 1
E 267 269 1
E 267 275 22
E 268 269 1
E 268 271 14
E 269 272 14
E 269 276 22
E 271 272 1
E 271 273 1
E 272 274 1
E 272 281 22
E 273 274 1
E 274 277 7
E 274 282 22
E 275 276 1
E 275 285 23
E 276 281 14
E 276 286 23
E 277 278 1
E 277 279 8
E 278 280 8
E 278 283 14
E 279 280 1
E 280 287 14
E 281 282 1
E 281 291 23
E 282 293 23
E 283 284 1
E 283 287 8
E 284 288 8
E 285 286 1
E 285 295 23
E 286 291 14
E 286 297 23
E 287 288 1
E 289 290 1
E 290 298 14
E 291 293 1
E 291 303 23
E 292 294 1
E 292 296 8
E 293 306 23
E 294 299 8
E 294 301 14
E 295 297 1
E 296 299 1
E 297 303 14
E 298 300 1
E 299 305 14
E 301 302 1
E 301 305 8
E 302 308 8
E 303 306 1
E 304 307 1
E 304 317 31
E 305 308 1
E 307 311 14
E 307 318 31
E 309 310 1
E 310 315 14
E 311 312 1
E 311 321 31
E 312 322 31
E 313 314 1
E 314 319 14
E 315 316 1
E 317 318 1
E 318 321 14
E 319 320 1
E 321 322 1
E 323 324 1
E 324 325 14
E 325 326 1
E 327 328 1
E 328 331 14
E 329 330 1
E 329 333 14
E 330 335 14
E 330 336 14
E 331 332 1
E 333 335 1
E 334 337 1
E 335 341 14
E 336 338 1
E 336 341 14
E 337 342 14
E 338 343 14
E 339 340 1
E 339 345 14
E 340 346 14
E 340 347 14
E 341 343 1
E 342 344 1
E 345 346 1
E 346 351 14
E 347 349 1
E 347 351 14
E 348 350 1
E 349 352 14
E 350 353 14
E 351 352 1
E 353 354 1
E 1 355 100000
E 2 355 100000
E 3 355 100000
E 4 355 100000
E 5 356 100000
E 6 356 100000
E 7 356 100000
E 8 356 100000
E 9 357 100000
E 10 357 100000
E 11 357 100000
E 12 357 100000
E 13 358 100000
E 14 358 100000
E 15 358 100000
E 16 358 100000
E 17 359 100000
E 18 359 100000
E 19 359 100000
E 20 359 100000
E 21 360 100000
E 22 360 100000
E 23 360 100000
E 24 360 100000
E 25 361 100000
E 26 361 100000
E 27 361 100000
E 28 361 100000
E 29 362 100000
E 30 362 100000
E 31 362 100000
E 32 362 100000
E 33 363 100000
E 34 363 100000
E 35 363 100000
E 36 363 100000
E 37 364 100000
E 38 364 100000
E 39 364 100000
E 40 364 100000
E 41 365 100000
E 42 365 100000
E 43 365 100000
E 44 365 100000
E 45 366 100000
E 46 366 100000
E 47 366 100000
E 48 366 100000
E 49 367 100000
E 50 367 100000
E 51 367 100000
E 52 367 100000
E 53 368 100000
E 54 368 100000
E 55 368 100000
E 56 368 100000
E 57 369 100000
E 58 369 100000
E 59 369 100000
E 60 369 100000
E 61 370 100000
E 62 370 100000
E 63 371 100000
E 64 371 100000
E 65 371 100000
E 66 371 100000
E 67 372 100000
E 68 372 100000
E 69 372 100000
E 70 372 100000
E 71 373 100000
E 72 373 100000
E 73 373 100000
E 74 373 100000
E 75 374 100000
E 76 374 100000
E 77 374 100000
E 78 374 100000
E 79 375 100000
E 80 375 100000
E 81 375 100000
E 82 375 100000
E 83 376 100000
E 84 376 100000
E 85 376 100000
E 86 376 100000
E 87 377 100000
E 88 377 100000
E 89 377 100000
E 90 377 100000
E 91 378 100000
E 92 378 100000
E 93 378 100000
E 94 378 100000
E 95 379 100000
E 96 379 100000
E 97 379 100000
E 98 379 100000
E 99 380 100000
E 100 380 100000
E 101 380 100000
E 102 380 100000
E 103 381 100000
E 104 381 100000
E 105 381 100000
E 106 381 100000
E 107 382 100000
E 108 382 100000
E 109 382 100000
E 110 382 100000
E 111 383 100000
E 112 383 100000
E 113 383 100000
E 114 383 100000
E 115 384 100000
E 116 384 100000
E 117 384 100000
E 118 384 100000
E 119 385 100000
E 120 385 100000
E 121 385 100000
E 122 385 100000
E 123 386 100000
E 124 386 100000
E 125 386 100000
E 126 386 100000
E 127 387 100000
E 128 387 100000
E 129 387 100000
E 130 387 100000
E 131 388 100000
E 132 388 100000
E 133 388 100000
E 134 388 100000
E 135 389 100000
E 136 389 100000
E 137 389 100000
E 138 389 100000
E 139 390 100000
E 140 390 100000
E 141 390 100000
E 142 390 100000
E 143 391 100000
E 144 391 100000
E 145 391 100000
E 146 391 100000
E 147 392 100000
E 148 392 100000
E 149 392 100000
E 150 392 100000
E 151 393 100000
E 152 393 100000
E 153 393 100000
E 154 393 100000
E 155 394 100000
E 156 394 100000
E 157 394 100000
E 158 394 100000
E 159 395 100000
E 160 395 100000
E 161 395 100000
E 162 395 100000
E 163 396 100000
E 164 396 100000
E 165 396 100000
E 166 396 100000
E 167 397 100000
E 168 397 100000
E 169 397 100000
E 170 397 100000
E 171 398 100000
E 172 398 100000
E 173 398 100000
E 174 398 100000
END 

SECTION Terminals 
Terminals 44
TP 355 377
TP 356 378
TP 357 379
TP 358 380
TP 359 381
TP 360 382
TP 361 383
TP 362 384
TP 363 385
TP 364 386
TP 365 387
TP 366 388
TP 367 389
TP 368 390
TP 369 391
TP 370 392
TP 371 393
TP 372 394
TP 373 395
TP 374 396
TP 375 397
TP 376 398
END 
